c  simple_cnf_4.cnf
c
p cnf 55 122
-1 -2 3 0
1 -3 0
2 -3 0
-4 -5 0
4 5 0
-3 -5 6 0
3 -6 0
5 -6 0
-1 -7 0
1 7 0
-7 -4 8 0
7 -8 0
4 -8 0
8 8 -9 0
-8 9 0
-8 9 0
-2 -10 0
2 10 0
-10 -4 11 0
10 -11 0
4 -11 0
11 11 -12 0
-11 12 0
-11 12 0
-4 -13 0
4 13 0
-14 -15 0
14 15 0
-13 -15 16 0
13 -16 0
15 -16 0
-16 -17 18 0
16 -18 0
17 -18 0
18 18 -19 0
-18 19 0
-18 19 0
-17 -20 0
17 20 0
-4 -20 21 0
4 -21 0
20 -21 0
21 21 -22 0
-21 22 0
-21 22 0
-17 -23 0
17 23 0
-14 -23 24 0
14 -24 0
23 -24 0
24 24 -25 0
-24 25 0
-24 25 0
-26 -27 0
26 27 0
-28 -29 0
28 29 0
-27 -29 30 0
27 -30 0
29 -30 0
-31 -32 0
31 32 0
-30 -32 33 0
30 -33 0
32 -33 0
33 33 -34 0
-33 34 0
-33 34 0
-26 -31 35 0
26 -35 0
31 -35 0
35 35 -36 0
-35 36 0
-35 36 0
-28 -31 37 0
28 -37 0
31 -37 0
37 37 -38 0
-37 38 0
-37 38 0
-17 -31 39 0
17 -39 0
31 -39 0
-40 -41 0
40 41 0
-39 -41 42 0
39 -42 0
41 -42 0
42 42 -43 0
-42 43 0
-42 43 0
-17 -44 0
17 44 0
-44 -40 45 0
44 -45 0
40 -45 0
45 45 -46 0
-45 46 0
-45 46 0
-31 -47 0
31 47 0
-47 -40 48 0
47 -48 0
40 -48 0
48 48 -49 0
-48 49 0
-48 49 0
-50 -2 51 0
50 -51 0
2 -51 0
51 51 -52 0
-51 52 0
-51 52 0
-50 -53 0
50 53 0
-53 -40 54 0
53 -54 0
40 -54 0
52 54 -55 0
-52 55 0
-54 55 0
55 0
